# Solution for model Master Problem
# Objective value = 5.3963682779014232e+02
theta[1] 0
theta[2] 0
theta[3] 0
theta[4] 0
theta[5] 0
theta[6] 0
theta[7] 0
theta[8] 0
theta[9] 0
theta[10] 0
theta[11] 0
theta[12] 0
theta[13] 0
theta[14] 0
theta[15] 0
theta[16] 0
theta[17] 0
theta[18] 0
theta[19] 0
theta[20] 0
theta[21] 0
theta[22] 0
theta[23] 0
theta[24] 0
theta[25] 0
theta[26] 0
theta[27] 0
theta[28] 0
theta[29] 0.8
theta[30] 0
theta[31] 0
theta[32] 0
theta[33] 0
theta[34] 0
theta[35] 0
theta[36] 1.9999999999999996e-01
theta[37] 2.0000000000000007e-01
theta[38] 0
theta[39] 5.0000000000000044e-02
theta[40] 2.9999999999999993e-01
theta[41] 0
theta[42] 0
theta[43] 1.9999999999999996e-01
theta[44] 0
theta[45] 0
theta[46] 0
theta[47] 0
theta[48] 0
theta[49] 5.0000000000000044e-02
theta[50] 0.4
theta[51] 0
theta[52] 0
theta[53] 0
theta[54] 0
theta[55] 4.9999999999999878e-02
theta[56] 0
theta[57] 1.5000000000000008e-01
theta[58] 1.5000000000000002e-01
theta[59] 0
theta[60] 0.6
theta[61] 1.0000000000000006e-01
theta[62] 0.25
theta[63] 1.4999999999999991e-01
theta[64] 5.0000000000000044e-02
theta[65] 0
theta[66] 0
theta[67] 5.0000000000000072e-02
theta[68] 0.4
theta[69] 0.4
theta[70] 5.0000000000000044e-02
theta[71] 2.9999999999999993e-01
theta[72] 0.75
